x04m01e2t24tp2
3214
3214
3214
3269
3290
3390
3390
3431
3632
3632
3632
3683
3770
3770
3770
3770
3770
3770
3800
3816
3816
3846
3846
3874
3874
3874
3896
3896
3896
3896
3933
3933
3933
3933
3933
3951
3951
3951
3959
3959
3959
3959
3959
4028
4028
4028
4028
4028
4028
4028
4028
4028
4028
4028
4028
4028
4028
4028
4028
4028
4028
4028
4028
4028
4028
4028
4028
4028
4028
4028
4046
4046
4046
4046
4046
4046
4046
4046
4046
4046
4046
4046
4046
4046
4046
4046
4046
4046
4046
4046
4046
4046
4046
4046
4046
4046
4046
4046
4046
4046
4046
4046
4046
4046
4046
4046
4046
4046
4046
4046
4046
4046
4046
4046
4046
4046
4046
4046
4046
4046
4046
4046
4046
4046
4046
4046
4046
4046
4046
4046
4046
4046
4046
4046
4046
4046
4046
4046
4046
4046
4046
4046
4046
4046
4046
4046
4046
4046
4046
4046
4046
4046
4046
4046
4046
4046
4046
4046
4046
4046
4046
4046
4046
4046
4046
4046
4046
4046
4046
4046
4046
4046
4046
4046
4046
4046
4046
4046
4046
4046
4046
4046
4046
4046
4046
4046
4046
4046
4046
4046
4046
4046
4046
4046
4046
4046
4046
4046
4046
4046
4046
4046
4046
4046
4046
4046
4046
4046
4046
4046
4046
4046
4046
4046
4046
4046
4046
4046
4046
4046
4046
4046
4046
4046
4046
4046
4046
4046
4046
4046
4046
4046
4046
4046
4046
4046
4046
4046
4046
4046
4046
4046
4046
4046
4046
4046
4046
4046
4046
4046
4046
4046
4046
4046
4046
4046
4048
4048
4048
4048
4048
4048
4048
4048
4048
4048
4048
4048
4048
4048
4048
4048
4048
4048
4048
4048
4048
4048
4048
4048
4048
4048
4048
4048
4048
4048
4048
4048
4048
4048
4048
4048
4048
4048
4048
4048
4048
4048
4048
4048
4048
4048
4048
4048
4048
4048
4048
4048
4048
4048
4048
4048
4048
4048
4048
4048
4048
4048
4048
4048
4048
4048
4048
4048
4048
4048
4048
4048
4048
4048
4048
4048
4048
4048
4048
4048
4048
4048
4048
4048
4048
4048
4048
4048
4048
4048
4048
4048
4048
4048
4048
4048
4048
4048
4048
4048
4048
4048
4048
4048
4048
4048
4048
4048
4048
4048
4048
4048
4048
4048
4048
4048
4048
4048
4048
4048
4048
4048
4048
4048
4048
4048
4048
4048
4048
4048
4048
4048
4048
4048
4048
4048
4048
4048
4048
4048
4048
4048
4048
4048
4048
4048
4048
4048
4048
4048
4048
4048
4048
4048
4048
4048
4048
4048
4048
4048
4048
4048
4048
4048
4048
4048
4048
4048
4048
4048
4048
4048
4048
4048
4048
4048
4048
4048
4048
4048
4048
4048
4048
4048
4048
4048
4048
4048
4048
4048
4048
4048
4048
4048
4048
4048
4048
4048
4048
4048
4048
4048
4048
4048
4048
4048
4048
4048
4048
4048
4048
4048
4048
4048
4048
4048
4048
4048
4048
4048
4048
4048
4048
4048
4048
4048
4048
4048
4048
4048
4048
4048
4048
4048
4048
4048
4048
4048
4048
4048
4048
4048
4048
4048
4048
4048
4048
4048
4048
4048
4048
4048
4048
4048
4048
4048
4048
4048
4048
4048
4048
4048
4048
4048
4048
4048
4048
4048
4048
4048
4048
4048
4048
4048
4048
4048
4048
4048
4048
4048
4048
4048
4048
4048
4048
4048
4048
4048
4048
4048
4048
4048
4048
4048
4048
4048
4048
4048
4048
4048
4048
4048
4048
4048
4048
4048
4048
4048
4048
4048
4048
4048
4048
4048
4048
4048
4048
4048
4048
4048
4048
4048
4048
4048
4048
4048
4048
4048
4048
4048
4048
4048
4048
4048
4048
4048
4048
4048
4048
4048
4048
4048
4048
4048
4048
4048
4048
4048
4048
4048
4048
4048
4048
4048
4048
4048
4048
4048
4048
4048
4048
4048
4048
4048
4048
4048
4048
4048
4048
4048
4048
4048
4048
4048
4048
4048
4048
4048
4048
4048
4048
4048
4048
4048
4048
4048
4048
4048
4048
4048
4048
4048
4048
4048
4048
4048
4048
4048
4048
4048
4048
4048
4048
4048
4048
4048
4048
4048
4048
4048
4048
4048
4048
4048
4048
4048
4048
4048
4048
4048
4048
4048
4048
4048
4048
4048
4048
4048
4048
4048
4048
4048
4048
4048
4048
4048
4048
4048
4048
4048
4048
4048
4048
4048
4048
4048
4048
4048
4048
4048
4048
4048
4048
4048
4048
4048
4048
4048
4048
4048
4048
4048
4048
4048
4048
4048
4048
4048
4048
4048
4048
4048
4048
4048
4048
4048
4048
4048
4048
4048
4048
4048
4048
4048
4048
4048
4048
4048
4048
4048
4048
4048
4048
4048
4048
4048
4048
4048
4048
4048
4048
4048
4048
4048
4048
4048
4048
4048
4048
4048
4048
4048
4048
4048
4048
4048
4048
4048
4048
4048
4048
4048
4048
4048
4048
4048
4048
4048
4048
4048
4048
4048
4048
4048
4048
4048
4048
4048
4048
4048
4048
4048
4048
4048
4048
4048
4048
4048
4048
4048
4048
4048
4048
4048
4048
4048
4048
4048
4048
4048
4048
4048
4048
4048
4048
4048
4048
4048
4048
4048
4048
4048
4048
4048
4048
4048
4048
4048
4048
4048
4048
4048
4048
4048
4048
4048
4048
4048
4048
4048
4048
4048
4048
4048
4048
4048
4048
4048
4048
4048
4048
4048
4048
4048
4048
4048
4048
4048
4048
4048
4048
4048
4048
4048
4048
4048
4048
4048
4048
4048
4048
4048
4048
4048
4048
4048
4048
4048
4048
4048
4048
4048
4048
4048
4048
4048
4048
4048
4048
4048
4048
4048
4048
4048
4048
4048
4048
4048
4048
4048
4048
4048
4048
4048
4048
4048
4048
4048
4048
4048
4048
4048
4048
4048
4048
4048
4048
4048
4048
4048
4048
4048
4048
4048
4048
4048
4048
4048
4048
4048
4048
4048
4048
4048
4048
4048
4048
4048
4048
4048
4048
4048
4048
4048
4048
4048
4048
4048
4048
4048
4048
4048
4048
4048
4048
4048
4048
4048
4048
4048
4048
4048
4048
4048
4048
4048
4048
4048
4048
4048
4048
4048
4048
4048
4048
4048
4048
4048
4048
4048
4048
4048
4048
4048
4048
4048
4048
4048
4048
4048
4048
4048
4048
4048
